Pt  C  O                                
   1.00000000000000     
     5.6438442357083760    0.0000000000000000    0.0000000000000000
     2.8219221178541880    4.8877124831258225    0.0000000000000000
     0.0000000000000000    0.0000000000000000   26.9122692826168155
   Pt   C    O 
    16     1     1
Selective dynamics
Direct
  0.0000000000000000  0.0000000000000000  0.3715777326313869   F   F   F
  0.5000000000000000  0.0000000000000000  0.3715777326313869   F   F   F
  0.0000000000000000  0.5000000000000000  0.3715777326313869   F   F   F
  0.5000000000000000  0.5000000000000000  0.3715777326313869   F   F   F
  0.1666666666666643  0.1666666666666643  0.4571925775437933   F   F   F
  0.6666666666666643  0.1666666666666643  0.4571925775437933   F   F   F
  0.1666666666666643  0.6666666666666643  0.4571925775437933   F   F   F
  0.6666666666666643  0.6666666666666643  0.4571925775437933   F   F   F
  0.8351068001747919  0.3324426773159033  0.5423914170996511   T   T   T
  0.3324407838107959  0.3324402950005947  0.5423904977201914   T   T   T
  0.8333327435354789  0.8333314513271333  0.5447998502357763   T   T   T
  0.3324416900731819  0.8351092993675664  0.5423921585850380   T   T   T
  0.9980910498738425  0.9980799685865804  0.6328530884241275   T   T   T
  0.5038463670808468  0.9980759879542234  0.6328493220592790   T   T   T
  0.9980860643772260  0.5038372771631145  0.6328471338635993   T   T   T
  0.5000002772313650  0.4999964780738750  0.6264768672493943   T   T   T
  0.1666815914655331  0.1666813542202448  0.6825073421484973   T   T   T
  0.1667031614996333  0.1667013640649984  0.7270902847700071   T   T   T
 
  0.00000000E+00  0.00000000E+00  0.00000000E+00
  0.00000000E+00  0.00000000E+00  0.00000000E+00
  0.00000000E+00  0.00000000E+00  0.00000000E+00
  0.00000000E+00  0.00000000E+00  0.00000000E+00
  0.00000000E+00  0.00000000E+00  0.00000000E+00
  0.00000000E+00  0.00000000E+00  0.00000000E+00
  0.00000000E+00  0.00000000E+00  0.00000000E+00
  0.00000000E+00  0.00000000E+00  0.00000000E+00
  0.00000000E+00  0.00000000E+00  0.00000000E+00
  0.00000000E+00  0.00000000E+00  0.00000000E+00
  0.00000000E+00  0.00000000E+00  0.00000000E+00
  0.00000000E+00  0.00000000E+00  0.00000000E+00
  0.00000000E+00  0.00000000E+00  0.00000000E+00
  0.00000000E+00  0.00000000E+00  0.00000000E+00
  0.00000000E+00  0.00000000E+00  0.00000000E+00
  0.00000000E+00  0.00000000E+00  0.00000000E+00
  0.00000000E+00  0.00000000E+00  0.00000000E+00
  0.00000000E+00  0.00000000E+00  0.00000000E+00
