Pt  C  O 
 1.0000000000000000
     5.6438442357083760    0.0000000000000000    0.0000000000000000
     2.8219221178541880    4.8877124831258225    0.0000000000000000
     0.0000000000000000    0.0000000000000000   26.9122692826168155
  16   1   1
Selective dynamics
Cartesian
  0.0000000000000000  0.0000000000000000 10.0000000000000764   F   F   F
  2.8219221178541880  0.0000000000000000 10.0000000000000764   F   F   F
  1.4109610589270940  2.4438562415629113 10.0000000000000764   F   F   F
  4.2328831767812822  2.4438562415629113 10.0000000000000764   F   F   F
  1.4109610589270738  0.8146187471876255 12.3040897608722339   F   F   F
  4.2328831767812618  0.8146187471876255 12.3040897608722339   F   F   F
  2.8219221178541680  3.2584749887505366 12.3040897608722339   F   F   F
  5.6438442357083565  3.2584749887505366 12.3040897608722339   F   F   F
  5.6513400444037831  1.6248842238407162 14.5969838735659661   T   T   T
  2.8143646227531094  1.6248725797684547 14.5969591309783659   T   T   T
  7.0547966550333472  4.0730845372329982 14.6618002746745830   T   T   T
  4.2328625189397107  4.0817741472933120 14.5970038286204211   T   T   T
 -0.0161919962782746 -0.0093845615073588 17.0315127320057869   T   T   T
  2.8382010023848414 -0.0094040176938331 17.0314113705808872   T   T   T
  1.4109876016939131  2.4626117490542643 17.0313524812694084   T   T   T
  4.2328748028306977  2.4438390274006161 16.8599141507459471   T   T   T
  1.4110867392994384  0.8146905357266045 18.3678213792633933   T   T   T
  1.4112649434355535  0.8147883380945892 19.5676495365049519   T   T   T
