Cu  C  O 
 1.0000000000000000
     5.2003586578063530    0.0000000000000000    0.0000000000000003
    -2.6001793289031783    4.5036427064506475    0.0000000000000003
     0.0000000000000000    0.0000000000000000   31.8455629777258977
  12   1   1
Selective dynamics
Cartesian
 -0.0000000000000012  1.5012142354835487 13.7997439570145559   F   F   F
  0.0000000000000012  0.0000000000000000 18.0458190207113383   T   T   T
  1.3000896644515862  0.7506071177417759 15.9227814888629489   T   T   T
 -1.3000896644515905  3.7530355887088724 13.7997439570145559   F   F   F
 -1.3000896644515880  2.2518213532253237 18.0458190207113383   T   T   T
 -0.0000000000000029  3.0024284709670996 15.9227814888629489   T   T   T
  2.6001793289031752  1.5012142354835487 13.7997439570145559   F   F   F
  2.6001793289031778  0.0000000000000000 18.0458190207113383   T   T   T
  3.9002689933547625  0.7506071177417759 15.9227814888629489   T   T   T
  1.3000896644515860  3.7530355887088724 13.7997439570145559   F   F   F
  1.3000896644515885  2.2518213532253237 18.0458190207113383   T   T   T
  2.6001793289031738  3.0024284709670996 15.9227814888629489   T   T   T
  1.9501344966773828  1.1259106766126676 19.8958190207113397   T   T   T
  1.9501344961341365  1.1259106739269804 21.0443910589125629   T   T   T
