Pt                                      
   1.00000000000000     
     5.6438442357083760    0.0000000000000000    0.0000000000000000
     2.8219221178541880    4.8877124831258225    0.0000000000000000
     0.0000000000000000    0.0000000000000000   26.9122692826168155
   Pt
    16
Selective dynamics
Direct
  0.0000000000000000  0.0000000000000000  0.3715777326313869   F   F   F
  0.5000000000000000  0.0000000000000000  0.3715777326313869   F   F   F
  0.0000000000000000  0.5000000000000000  0.3715777326313869   F   F   F
  0.5000000000000000  0.5000000000000000  0.3715777326313869   F   F   F
  0.1666666666666643  0.1666666666666643  0.4571925775437933   F   F   F
  0.6666666666666643  0.1666666666666643  0.4571925775437933   F   F   F
  0.1666666666666643  0.6666666666666643  0.4571925775437933   F   F   F
  0.6666666666666643  0.6666666666666643  0.4571925775437933   F   F   F
  0.8333322280452293  0.3333345981143978  0.5422485826630279   T   T   T
  0.3333338037582010  0.3333334388478164  0.5422490692317297   T   T   T
  0.8333331142063187  0.8333327084762345  0.5422455555423014   T   T   T
  0.3333347297614040  0.8333321155882487  0.5422457287262503   T   T   T
  0.0000009805933061  0.9999972538988757  0.6287198447188658   T   T   T
  0.5000011568419325  0.9999983817355869  0.6287136147098948   T   T   T
  0.9999996488066358  0.5000023944681260  0.6287275205568505   T   T   T
  0.4999983055679067  0.5000019281369745  0.6287251335325550   T   T   T
 
  0.00000000E+00  0.00000000E+00  0.00000000E+00
  0.00000000E+00  0.00000000E+00  0.00000000E+00
  0.00000000E+00  0.00000000E+00  0.00000000E+00
  0.00000000E+00  0.00000000E+00  0.00000000E+00
  0.00000000E+00  0.00000000E+00  0.00000000E+00
  0.00000000E+00  0.00000000E+00  0.00000000E+00
  0.00000000E+00  0.00000000E+00  0.00000000E+00
  0.00000000E+00  0.00000000E+00  0.00000000E+00
  0.00000000E+00  0.00000000E+00  0.00000000E+00
  0.00000000E+00  0.00000000E+00  0.00000000E+00
  0.00000000E+00  0.00000000E+00  0.00000000E+00
  0.00000000E+00  0.00000000E+00  0.00000000E+00
  0.00000000E+00  0.00000000E+00  0.00000000E+00
  0.00000000E+00  0.00000000E+00  0.00000000E+00
  0.00000000E+00  0.00000000E+00  0.00000000E+00
  0.00000000E+00  0.00000000E+00  0.00000000E+00
