Pt 
 1.0000000000000000
     5.6438442357083760    0.0000000000000000    0.0000000000000000
     2.8219221178541880    4.8877124831258225    0.0000000000000000
     0.0000000000000000    0.0000000000000000   26.9122692826168155
  16
Selective dynamics
Cartesian
  0.0000000000000000  0.0000000000000000 10.0000000000000764   F   F   F
  2.8219221178541880  0.0000000000000000 10.0000000000000764   F   F   F
  1.4109610589270940  2.4438562415629113 10.0000000000000764   F   F   F
  4.2328831767812822  2.4438562415629113 10.0000000000000764   F   F   F
  1.4109610589270738  0.8146187471876255 12.3040897608722339   F   F   F
  4.2328831767812618  0.8146187471876255 12.3040897608722339   F   F   F
  2.8219221178541680  3.2584749887505366 12.3040897608722339   F   F   F
  5.6438442357083565  3.2584749887505366 12.3040897608722339   F   F   F
  5.6438415667481454  1.6292436762614655 14.5931398747446330   T   T   T
  2.8219250706125254  1.6292380100997261 14.5931529694126407   T   T   T
  7.0548022946186748  4.0730906818163328 14.5930584080565158   T   T   T
  4.2328876216220204  4.0730877839503421 14.5930630688296432   T   T   T
 -0.0000022149676370 -0.0000134221527481 16.9202777643992128   T   T   T
  2.8219240802737291 -0.0000079096111573 16.9201101007201160   T   T   T
  1.4109658338490234  2.4438679450346519 16.9204843386179036   T   T   T
  4.2328790547228721  2.4438656657420781 16.9204200983772601   T   T   T
