INCAR created by Atomic Simulation Environment
 ENCUT = 350.000000
 EDIFFG = -3.00e-02
 GGA = RP
 IBRION = 2
 ISIF = 0
 ISYM = 0
 NSW = 200
 IVDW = 0
 NCORE = 4
 LASPH = .FALSE.
 LCHARG = .FALSE.
 LWAVE = .FALSE.
 LREAL = Auto
