Cu Zn 
 1.0000000000000000
     3.0493886965000003    0.0000000000000000    0.0000000000000000
     0.0000000000000000    3.0493886965000003    0.0000000000000000
     0.0000000000000000    0.0000000000000000    3.0493886965000003
   1   1
Cartesian
  0.0000000000000000  0.0000000000000000  0.0000000000000000
  1.5246943482500006  1.5246943482500006  1.5246943482500006
