Cu 
 1.0000000000000000
     3.5064530000000000    0.0000000000000000    0.0000000000000000
    -1.7532265000000000    3.0366773751761560    0.0000000000000000
     0.0000000000000000    0.0000000000000000    4.8499999999999996
   2
Cartesian
  0.0000000000000000  0.0000000000000000  0.0000000000000000
 -0.0000000000000001  2.0244515834507704  2.4249999999999998
