Cu 
 1.0000000000000000
     0.0000000000000000    1.8616735000000000    1.8616735000000000
     1.8616735000000000    0.0000000000000000    1.8616735000000000
     1.8616735000000000    1.8616735000000000    0.0000000000000000
   1
Cartesian
  0.0000000000000000  0.0000000000000000  0.0000000000000000
