Cu 
 1.0000000000000000
     2.6374379510999999    0.0000000000000000    0.0000000000000000
     1.3187189755500002    2.2840882665577795    0.0000000000000000
     1.3187189755500002    0.7613627555192601    2.1534590694821771
   1
Cartesian
  0.0000000000000000  0.0000000000000000  0.0000000000000000
