Cu  C  O                                
   1.00000000000000     
     5.1999636305000445    0.0000000000000000    0.0000000000000000
     2.5999818152500223    4.5033006027681957    0.0000000000000000
     0.0000000000000000    0.0000000000000000   26.3686287878777179
   Cu   C    O 
    16     1     1
Selective dynamics
Direct
  0.0000000000000000  0.0000000000000000  0.3792385292555380   F   F   F
  0.5000000000000000  0.0000000000000000  0.3792385292555380   F   F   F
  0.0000000000000000  0.5000000000000000  0.3792385292555380   F   F   F
  0.5000000000000000  0.5000000000000000  0.3792385292555380   F   F   F
  0.1666666666666643  0.1666666666666643  0.4597461764185127   F   F   F
  0.6666666666666643  0.1666666666666643  0.4597461764185127   F   F   F
  0.1666666666666643  0.6666666666666643  0.4597461764185127   F   F   F
  0.6666666666666643  0.6666666666666643  0.4597461764185127   F   F   F
  0.8349698318863332  0.3300848309549522  0.5391785763660764   T   T   T
  0.3333318843679294  0.3333318765182298  0.5383392686117716   T   T   T
  0.8349467146764553  0.8349467218292617  0.5391820883437646   T   T   T
  0.3300848318545988  0.8349698366902771  0.5391785767874282   T   T   T
  0.0000020497361177  0.0000020333533541  0.6224860603650413   T   T   T
  0.4994604534305438  0.0010783047379519  0.6165751079221735   T   T   T
  0.0010783242748786  0.4994604358919048  0.6165751077989299   T   T   T
  0.4994604588456610  0.4994604367020656  0.6165626804201381   T   T   T
  0.9999997294062695  0.9999997366767062  0.6933114547348751   T   T   T
  0.9999985357169692  0.9999985648595668  0.7373898766652545   T   T   T
 
  0.00000000E+00  0.00000000E+00  0.00000000E+00
  0.00000000E+00  0.00000000E+00  0.00000000E+00
  0.00000000E+00  0.00000000E+00  0.00000000E+00
  0.00000000E+00  0.00000000E+00  0.00000000E+00
  0.00000000E+00  0.00000000E+00  0.00000000E+00
  0.00000000E+00  0.00000000E+00  0.00000000E+00
  0.00000000E+00  0.00000000E+00  0.00000000E+00
  0.00000000E+00  0.00000000E+00  0.00000000E+00
  0.00000000E+00  0.00000000E+00  0.00000000E+00
  0.00000000E+00  0.00000000E+00  0.00000000E+00
  0.00000000E+00  0.00000000E+00  0.00000000E+00
  0.00000000E+00  0.00000000E+00  0.00000000E+00
  0.00000000E+00  0.00000000E+00  0.00000000E+00
  0.00000000E+00  0.00000000E+00  0.00000000E+00
  0.00000000E+00  0.00000000E+00  0.00000000E+00
  0.00000000E+00  0.00000000E+00  0.00000000E+00
  0.00000000E+00  0.00000000E+00  0.00000000E+00
  0.00000000E+00  0.00000000E+00  0.00000000E+00
