Cu  C  O 
 1.0000000000000000
     5.1999636305000445    0.0000000000000000    0.0000000000000000
     2.5999818152500223    4.5033006027681957    0.0000000000000000
     0.0000000000000000    0.0000000000000000   26.3686287878777179
  16   1   1
Selective dynamics
Cartesian
  0.0000000000000000  0.0000000000000000  9.9999999999999858   F   F   F
  2.5999818152500223  0.0000000000000000  9.9999999999999858   F   F   F
  1.2999909076250111  2.2516503013840978  9.9999999999999858   F   F   F
  3.8999727228750336  2.2516503013840978  9.9999999999999858   F   F   F
  1.2999909076249927  0.7505501004613553 12.1228762626259012   F   F   F
  3.8999727228750150  0.7505501004613553 12.1228762626259012   F   F   F
  2.5999818152500036  3.0022004018454531 12.1228762626259012   F   F   F
  5.1999636305000259  3.0022004018454531 12.1228762626259012   F   F   F
  5.2000273163464339  1.4864712182040745 14.2173997305734048   T   T   T
  2.5999704929898351  1.5010936404464050 14.1952683359614085   T   T   T
  6.5125388431817459  3.7600160756930285 14.2174923366094674   T   T   T
  3.8873355123006164  3.7601201688605754 14.2173997416839182   T   T   T
  0.0000159452350309  0.0000091568013973 16.4141038513942021   T   T   T
  2.5999797654218577  0.0048559303763785 16.2582401406454515   T   T   T
  1.3041952977670397  2.2492204820108812 16.2582401373956884   T   T   T
  3.8957642737325200  2.2492204856592761 16.2579124444575669   T   T   T
 -0.0000020917133353 -0.0000011858239630 18.2816723842874218   T   T   T
 -0.0000113455575518 -0.0000064628687932 19.4439599297250290   T   T   T
