Pt  C  O                                
   1.00000000000000     
     5.6438442357083760    0.0000000000000000    0.0000000000000000
     2.8219221178541880    4.8877124831258225    0.0000000000000000
     0.0000000000000000    0.0000000000000000   26.9122692826168155
   Pt   C    O 
    16     1     1
Selective dynamics
Direct
  0.0000000000000000  0.0000000000000000  0.3715777326313869   F   F   F
  0.5000000000000000  0.0000000000000000  0.3715777326313869   F   F   F
  0.0000000000000000  0.5000000000000000  0.3715777326313869   F   F   F
  0.5000000000000000  0.5000000000000000  0.3715777326313869   F   F   F
  0.1666666666666643  0.1666666666666643  0.4571925775437933   F   F   F
  0.6666666666666643  0.1666666666666643  0.4571925775437933   F   F   F
  0.1666666666666643  0.6666666666666643  0.4571925775437933   F   F   F
  0.6666666666666643  0.6666666666666643  0.4571925775437933   F   F   F
  0.8359154634779813  0.3281699706712189  0.5426494410610019   T   T   T
  0.3333329002883687  0.3333333920736905  0.5413356580478705   T   T   T
  0.8359150777110642  0.8359150909121240  0.5426496006726325   T   T   T
  0.3281696578481572  0.8359156357269768  0.5426493706260302   T   T   T
  0.0000001210315901  0.9999996491090855  0.6361190359254110   T   T   T
  0.5003290084596870  0.9993417318096647  0.6261644510539455   T   T   T
  0.9993422284319564  0.5003285723919575  0.6261647456523889   T   T   T
  0.5003287909839642  0.5003284458337873  0.6261636572061136   T   T   T
  0.9999998355920781  0.9999994575571023  0.7048176878129624   T   T   T
  0.9999995808172173  0.9999995353099465  0.7480538852313359   T   T   T
 
  0.00000000E+00  0.00000000E+00  0.00000000E+00
  0.00000000E+00  0.00000000E+00  0.00000000E+00
  0.00000000E+00  0.00000000E+00  0.00000000E+00
  0.00000000E+00  0.00000000E+00  0.00000000E+00
  0.00000000E+00  0.00000000E+00  0.00000000E+00
  0.00000000E+00  0.00000000E+00  0.00000000E+00
  0.00000000E+00  0.00000000E+00  0.00000000E+00
  0.00000000E+00  0.00000000E+00  0.00000000E+00
  0.00000000E+00  0.00000000E+00  0.00000000E+00
  0.00000000E+00  0.00000000E+00  0.00000000E+00
  0.00000000E+00  0.00000000E+00  0.00000000E+00
  0.00000000E+00  0.00000000E+00  0.00000000E+00
  0.00000000E+00  0.00000000E+00  0.00000000E+00
  0.00000000E+00  0.00000000E+00  0.00000000E+00
  0.00000000E+00  0.00000000E+00  0.00000000E+00
  0.00000000E+00  0.00000000E+00  0.00000000E+00
  0.00000000E+00  0.00000000E+00  0.00000000E+00
  0.00000000E+00  0.00000000E+00  0.00000000E+00
