Pt  C  O 
 1.0000000000000000
     5.6438442357083760    0.0000000000000000    0.0000000000000000
     2.8219221178541880    4.8877124831258225    0.0000000000000000
     0.0000000000000000    0.0000000000000000   26.9122692826168155
  16   1   1
Selective dynamics
Cartesian
  0.0000000000000000  0.0000000000000000 10.0000000000000764   F   F   F
  2.8219221178541880  0.0000000000000000 10.0000000000000764   F   F   F
  1.4109610589270940  2.4438562415629113 10.0000000000000764   F   F   F
  4.2328831767812822  2.4438562415629113 10.0000000000000764   F   F   F
  1.4109610589270738  0.8146187471876255 12.3040897608722339   F   F   F
  4.2328831767812618  0.8146187471876255 12.3040897608722339   F   F   F
  2.8219221178541680  3.2584749887505366 12.3040897608722339   F   F   F
  5.6438442357083565  3.2584749887505366 12.3040897608722339   F   F   F
  5.6438467687423728  1.6040004622367374 14.6039278838951940   T   T   T
  2.8219198395765637  1.6292377814812580 14.5685710016667898   T   T   T
  7.0766617765743334  4.0857126246844349 14.6039321794063923   T   T   T
  4.2110272528987966  4.0857152875828042 14.6039259883303085   T   T   T
 -0.0000003071033772 -0.0000017150538888 17.1194067906231808   T   T   T
  2.8219214087871101 -0.0032174256511636 16.8515063219656973   T   T   T
  1.4081759043545379  2.4454622089446816 16.8515142502783490   T   T   T
  4.2356656704437441  2.4454615903647294 16.8514849577190482   T   T   T
 -0.0000024586243209 -0.0000026513049186 18.9682434095737733   T   T   T
 -0.0000036771214816 -0.0000022712713621 20.1318275972533840   T   T   T
