Pt  C  O                                
   1.00000000000000     
     5.6438442357083760    0.0000000000000000    0.0000000000000000
     2.8219221178541880    4.8877124831258225    0.0000000000000000
     0.0000000000000000    0.0000000000000000   26.9122692826168155
   Pt   C    O 
    16     1     1
Selective dynamics
Direct
  0.0000000000000000  0.0000000000000000  0.3715777326313869   F   F   F
  0.5000000000000000  0.0000000000000000  0.3715777326313869   F   F   F
  0.0000000000000000  0.5000000000000000  0.3715777326313869   F   F   F
  0.5000000000000000  0.5000000000000000  0.3715777326313869   F   F   F
  0.1666666666666643  0.1666666666666643  0.4571925775437933   F   F   F
  0.6666666666666643  0.1666666666666643  0.4571925775437933   F   F   F
  0.1666666666666643  0.6666666666666643  0.4571925775437933   F   F   F
  0.6666666666666643  0.6666666666666643  0.4571925775437933   F   F   F
  0.8316805608165723  0.3366428307179774  0.5429781855580771   T   T   T
  0.3333357740680682  0.3333361466145774  0.5423458118384659   T   T   T
  0.8316841353363600  0.8316838949581040  0.5429771738284259   T   T   T
  0.3366425027735858  0.8316805408534123  0.5429781639174749   T   T   T
  0.9999997372858829  0.9999998735626221  0.6257227327100168   T   T   T
  0.5010385654552181  0.9979160669765719  0.6324508201188692   T   T   T
  0.9979160147668651  0.5010386799582207  0.6324508562636169   T   T   T
  0.5010322648374697  0.5010325706597598  0.6324576639772985   T   T   T
  0.3333145052208337  0.3333144300919173  0.6822757725332735   T   T   T
  0.3332916709332423  0.3332913839481151  0.7268323752795283   T   T   T
 
  0.00000000E+00  0.00000000E+00  0.00000000E+00
  0.00000000E+00  0.00000000E+00  0.00000000E+00
  0.00000000E+00  0.00000000E+00  0.00000000E+00
  0.00000000E+00  0.00000000E+00  0.00000000E+00
  0.00000000E+00  0.00000000E+00  0.00000000E+00
  0.00000000E+00  0.00000000E+00  0.00000000E+00
  0.00000000E+00  0.00000000E+00  0.00000000E+00
  0.00000000E+00  0.00000000E+00  0.00000000E+00
  0.00000000E+00  0.00000000E+00  0.00000000E+00
  0.00000000E+00  0.00000000E+00  0.00000000E+00
  0.00000000E+00  0.00000000E+00  0.00000000E+00
  0.00000000E+00  0.00000000E+00  0.00000000E+00
  0.00000000E+00  0.00000000E+00  0.00000000E+00
  0.00000000E+00  0.00000000E+00  0.00000000E+00
  0.00000000E+00  0.00000000E+00  0.00000000E+00
  0.00000000E+00  0.00000000E+00  0.00000000E+00
  0.00000000E+00  0.00000000E+00  0.00000000E+00
  0.00000000E+00  0.00000000E+00  0.00000000E+00
