Pt  C  O 
 1.0000000000000000
     5.6438442357083760    0.0000000000000000    0.0000000000000000
     2.8219221178541880    4.8877124831258225    0.0000000000000000
     0.0000000000000000    0.0000000000000000   26.9122692826168155
  16   1   1
Selective dynamics
Cartesian
  0.0000000000000000  0.0000000000000000 10.0000000000000764   F   F   F
  2.8219221178541880  0.0000000000000000 10.0000000000000764   F   F   F
  1.4109610589270940  2.4438562415629113 10.0000000000000764   F   F   F
  4.2328831767812822  2.4438562415629113 10.0000000000000764   F   F   F
  1.4109610589270738  0.8146187471876255 12.3040897608722339   F   F   F
  4.2328831767812618  0.8146187471876255 12.3040897608722339   F   F   F
  2.8219221178541680  3.2584749887505366 12.3040897608722339   F   F   F
  5.6438442357083565  3.2584749887505366 12.3040897608722339   F   F   F
  5.6438553889354015  1.6454133660550572 14.6127751443256866   T   T   T
  2.8219438318414309  1.6292512448851224 14.5957565324962637   T   T   T
  7.0408428913936270  4.0650317554014208 14.6127479163848832   T   T   T
  4.2468955619963200  4.0650153615020530 14.6127745619279850   T   T   T
 -0.0000018395140011 -0.0000006179895454 16.8396186789469304   T   T   T
  2.8219029228210779 -0.0101856654526184 17.0206867790508376   T   T   T
  1.4021304448292553  2.4489330105606761 17.0206877517879960   T   T   T
  4.2416229527169840  2.4489031500663119 17.0208709628118342   T   T   T
  2.8217625114449358  1.6291451007662354 18.3615893154209218   T   T   T
  2.8215686038595855  1.6290324578414663 19.5607086068467595   T   T   T
