Cu  C  O                                
   1.00000000000000     
     5.1999636305000445    0.0000000000000000    0.0000000000000000
     2.5999818152500223    4.5033006027681957    0.0000000000000000
     0.0000000000000000    0.0000000000000000   26.3686287878777179
   Cu   C    O 
    16     1     1
Selective dynamics
Direct
  0.0000000000000000  0.0000000000000000  0.3792385292555380   F   F   F
  0.5000000000000000  0.0000000000000000  0.3792385292555380   F   F   F
  0.0000000000000000  0.5000000000000000  0.3792385292555380   F   F   F
  0.5000000000000000  0.5000000000000000  0.3792385292555380   F   F   F
  0.1666666666666643  0.1666666666666643  0.4597461764185127   F   F   F
  0.6666666666666643  0.1666666666666643  0.4597461764185127   F   F   F
  0.1666666666666643  0.6666666666666643  0.4597461764185127   F   F   F
  0.6666666666666643  0.6666666666666643  0.4597461764185127   F   F   F
  0.8324887883372938  0.3330709778031959  0.5391603095854123   T   T   T
  0.3350951249153979  0.3324337910140756  0.5384450667692917   T   T   T
  0.8325016769079880  0.8344165074225387  0.5391582015310945   T   T   T
  0.3369131718530838  0.8315329382975136  0.5411215536066436   T   T   T
  0.0020221668425506  0.9989806420484726  0.6181642660232640   T   T   T
  0.4953018259577391  0.0029869177253445  0.6220066086980935   T   T   T
  0.9886607625585597  0.5056659145727807  0.6172510229170243   T   T   T
  0.4952493095873436  0.5017424982433596  0.6220012932278323   T   T   T
  0.5044326475284748  0.2477903533225714  0.6798881840773277   T   T   T
  0.5036263060812232  0.2482878353924818  0.7246148977477276   T   T   T
 
  0.00000000E+00  0.00000000E+00  0.00000000E+00
  0.00000000E+00  0.00000000E+00  0.00000000E+00
  0.00000000E+00  0.00000000E+00  0.00000000E+00
  0.00000000E+00  0.00000000E+00  0.00000000E+00
  0.00000000E+00  0.00000000E+00  0.00000000E+00
  0.00000000E+00  0.00000000E+00  0.00000000E+00
  0.00000000E+00  0.00000000E+00  0.00000000E+00
  0.00000000E+00  0.00000000E+00  0.00000000E+00
  0.00000000E+00  0.00000000E+00  0.00000000E+00
  0.00000000E+00  0.00000000E+00  0.00000000E+00
  0.00000000E+00  0.00000000E+00  0.00000000E+00
  0.00000000E+00  0.00000000E+00  0.00000000E+00
  0.00000000E+00  0.00000000E+00  0.00000000E+00
  0.00000000E+00  0.00000000E+00  0.00000000E+00
  0.00000000E+00  0.00000000E+00  0.00000000E+00
  0.00000000E+00  0.00000000E+00  0.00000000E+00
  0.00000000E+00  0.00000000E+00  0.00000000E+00
  0.00000000E+00  0.00000000E+00  0.00000000E+00
