Cu  C  O 
 1.0000000000000000
     5.1999636305000445    0.0000000000000000    0.0000000000000000
     2.5999818152500223    4.5033006027681957    0.0000000000000000
     0.0000000000000000    0.0000000000000000   26.3686287878777179
  16   1   1
Selective dynamics
Cartesian
  0.0000000000000000  0.0000000000000000  9.9999999999999858   F   F   F
  2.5999818152500223  0.0000000000000000  9.9999999999999858   F   F   F
  1.2999909076250111  2.2516503013840978  9.9999999999999858   F   F   F
  3.8999727228750336  2.2516503013840978  9.9999999999999858   F   F   F
  1.2999909076249927  0.7505501004613553 12.1228762626259012   F   F   F
  3.8999727228750150  0.7505501004613553 12.1228762626259012   F   F   F
  2.5999818152500036  3.0022004018454531 12.1228762626259012   F   F   F
  5.1999636305000259  3.0022004018454531 12.1228762626259012   F   F   F
  5.1948899076288502  1.4999187351057348 14.2169180606149528   T   T   T
  2.6068042737291846  1.4970492914542133 14.1980580883034619   T   T   T
  6.4984461878948796  3.7576283608356631 14.2168624741132703   T   T   T
  3.9139067586273835  3.7446427822568031 14.2686333761732556   T   T   T
  0.0078648818988559 -0.0045904752775575 16.3001440606983579   T   T   T
  2.5833174128700698  0.0134509883929737 16.4014613683668280   T   T   T
  1.2557585601878825  2.2771656178949184 16.2760630922367611   T   T   T
  3.8797997692553068  2.2594972947737459 16.4013212067045977   T   T   T
  3.2672818338179770  1.1158744474776794 17.9277191431993010   T   T   T
  3.2643823319536969  1.1181147587829801 19.1071012528758466   T   T   T
