Pt  C  O                                
   1.00000000000000     
     5.6438442357083760    0.0000000000000000    0.0000000000000000
     2.8219221178541880    4.8877124831258225    0.0000000000000000
     0.0000000000000000    0.0000000000000000   26.9122692826168155
   Pt   C    O 
    16     1     1
Selective dynamics
Direct
  0.0000000000000000  0.0000000000000000  0.3715777326313869   F   F   F
  0.5000000000000000  0.0000000000000000  0.3715777326313869   F   F   F
  0.0000000000000000  0.5000000000000000  0.3715777326313869   F   F   F
  0.5000000000000000  0.5000000000000000  0.3715777326313869   F   F   F
  0.1666666666666643  0.1666666666666643  0.4571925775437933   F   F   F
  0.6666666666666643  0.1666666666666643  0.4571925775437933   F   F   F
  0.1666666666666643  0.6666666666666643  0.4571925775437933   F   F   F
  0.6666666666666643  0.6666666666666643  0.4571925775437933   F   F   F
  0.8338776241646997  0.3330601398889996  0.5422031732546344   T   T   T
  0.3316912478729463  0.3334513993360488  0.5421694751955215   T   T   T
  0.8417668473563609  0.8291159135499839  0.5448298155690026   T   T   T
  0.3316917762359566  0.8348555369795250  0.5421695960435287   T   T   T
  0.9973341568862537  0.0021432518431581  0.6343461354904392   T   T   T
  0.5079619149036887  0.9960187266818892  0.6267695192344362   T   T   T
  0.9973321425869059  0.5005239587255588  0.6343455115265328   T   T   T
  0.4902327671209221  0.5048823851076847  0.6267796650989723   T   T   T
  0.0043795457963967  0.2478128612443484  0.6884709040839638   T   T   T
  0.0032875564846151  0.2483637102392535  0.7325912683678055   T   T   T
 
  0.00000000E+00  0.00000000E+00  0.00000000E+00
  0.00000000E+00  0.00000000E+00  0.00000000E+00
  0.00000000E+00  0.00000000E+00  0.00000000E+00
  0.00000000E+00  0.00000000E+00  0.00000000E+00
  0.00000000E+00  0.00000000E+00  0.00000000E+00
  0.00000000E+00  0.00000000E+00  0.00000000E+00
  0.00000000E+00  0.00000000E+00  0.00000000E+00
  0.00000000E+00  0.00000000E+00  0.00000000E+00
  0.00000000E+00  0.00000000E+00  0.00000000E+00
  0.00000000E+00  0.00000000E+00  0.00000000E+00
  0.00000000E+00  0.00000000E+00  0.00000000E+00
  0.00000000E+00  0.00000000E+00  0.00000000E+00
  0.00000000E+00  0.00000000E+00  0.00000000E+00
  0.00000000E+00  0.00000000E+00  0.00000000E+00
  0.00000000E+00  0.00000000E+00  0.00000000E+00
  0.00000000E+00  0.00000000E+00  0.00000000E+00
  0.00000000E+00  0.00000000E+00  0.00000000E+00
  0.00000000E+00  0.00000000E+00  0.00000000E+00
