Pt  C  O 
 1.0000000000000000
     5.6438442357083760    0.0000000000000000    0.0000000000000000
     2.8219221178541880    4.8877124831258225    0.0000000000000000
     0.0000000000000000    0.0000000000000000   26.9122692826168155
  16   1   1
Selective dynamics
Cartesian
  0.0000000000000000  0.0000000000000000 10.0000000000000764   F   F   F
  2.8219221178541880  0.0000000000000000 10.0000000000000764   F   F   F
  1.4109610589270940  2.4438562415629113 10.0000000000000764   F   F   F
  4.2328831767812822  2.4438562415629113 10.0000000000000764   F   F   F
  1.4109610589270738  0.8146187471876255 12.3040897608722339   F   F   F
  4.2328831767812618  0.8146187471876255 12.3040897608722339   F   F   F
  2.8219221178541680  3.2584749887505366 12.3040897608722339   F   F   F
  5.6438442357083565  3.2584749887505366 12.3040897608722339   F   F   F
  5.6461451977565336  1.6279022033671073 14.5919178045179887   T   T   T
  2.8129876163584870  1.6298145670505768 14.5910109132768646   T   T   T
  7.0905015039741972  4.0524802006165146 14.6626067097914170   T   T   T
  4.2279140243567319  4.0805338297015190 14.5910141655709911   T   T   T
 -0.0089975135104958  0.0104755987882819 17.0716940167060969   T   T   T
  2.8556230821549748 -0.0194593192956581 16.8677900797733997   T   T   T
  1.3973826579610267  2.4464172011664784 17.0716772244213359   T   T   T
  4.1915361463211127  2.4677199362011559 16.8680631280119258   T   T   T
  0.7240260685321800  1.2112380153831184 18.5283143639542693   T   T   T
  0.7194175039117351  1.2139304068918582 19.7156934884081707   T   T   T
