Cu                                      
   1.00000000000000     
     5.1999636305000445    0.0000000000000000    0.0000000000000000
     2.5999818152500223    4.5033006027681957    0.0000000000000000
     0.0000000000000000    0.0000000000000000   26.3686287878777179
   Cu
    16
Selective dynamics
Direct
  0.0000000000000000  0.0000000000000000  0.3792385292555380   F   F   F
  0.5000000000000000  0.0000000000000000  0.3792385292555380   F   F   F
  0.0000000000000000  0.5000000000000000  0.3792385292555380   F   F   F
  0.5000000000000000  0.5000000000000000  0.3792385292555380   F   F   F
  0.1666666666666643  0.1666666666666643  0.4597461764185127   F   F   F
  0.6666666666666643  0.1666666666666643  0.4597461764185127   F   F   F
  0.1666666666666643  0.6666666666666643  0.4597461764185127   F   F   F
  0.6666666666666643  0.6666666666666643  0.4597461764185127   F   F   F
  0.8333359321594997  0.3333195718472766  0.5387107697296969   T   T   T
  0.3333354318894806  0.3333272145322610  0.5387098218661208   T   T   T
  0.8333324174121017  0.8333412177700552  0.5387108971146191   T   T   T
  0.3333226692021398  0.8333389984061981  0.5387095816555743   T   T   T
  0.9999956404006838  0.0000040163579200  0.6177982535090152   T   T   T
  0.5000044354936577  0.0000044065797766  0.6177973770682570   T   T   T
  0.9999994891066137  0.5000043040447508  0.6178004833130828   T   T   T
  0.5000038390796746  0.4999973801215134  0.6177978908690562   T   T   T
 
  0.00000000E+00  0.00000000E+00  0.00000000E+00
  0.00000000E+00  0.00000000E+00  0.00000000E+00
  0.00000000E+00  0.00000000E+00  0.00000000E+00
  0.00000000E+00  0.00000000E+00  0.00000000E+00
  0.00000000E+00  0.00000000E+00  0.00000000E+00
  0.00000000E+00  0.00000000E+00  0.00000000E+00
  0.00000000E+00  0.00000000E+00  0.00000000E+00
  0.00000000E+00  0.00000000E+00  0.00000000E+00
  0.00000000E+00  0.00000000E+00  0.00000000E+00
  0.00000000E+00  0.00000000E+00  0.00000000E+00
  0.00000000E+00  0.00000000E+00  0.00000000E+00
  0.00000000E+00  0.00000000E+00  0.00000000E+00
  0.00000000E+00  0.00000000E+00  0.00000000E+00
  0.00000000E+00  0.00000000E+00  0.00000000E+00
  0.00000000E+00  0.00000000E+00  0.00000000E+00
  0.00000000E+00  0.00000000E+00  0.00000000E+00
