Cu 
 1.0000000000000000
     5.1999636305000445    0.0000000000000000    0.0000000000000000
     2.5999818152500223    4.5033006027681957    0.0000000000000000
     0.0000000000000000    0.0000000000000000   26.3686287878777179
  16
Selective dynamics
Cartesian
  0.0000000000000000  0.0000000000000000  9.9999999999999858   F   F   F
  2.5999818152500223  0.0000000000000000  9.9999999999999858   F   F   F
  1.2999909076250111  2.2516503013840978  9.9999999999999858   F   F   F
  3.8999727228750336  2.2516503013840978  9.9999999999999858   F   F   F
  1.2999909076249927  0.7505501004613553 12.1228762626259012   F   F   F
  3.8999727228750150  0.7505501004613553 12.1228762626259012   F   F   F
  2.5999818152500036  3.0022004018454531 12.1228762626259012   F   F   F
  5.1999636305000259  3.0022004018454531 12.1228762626259012   F   F   F
  5.1999413646880939  1.5010382288142778 14.2050643110341674   T   T   T
  2.5999768188941532  1.5010726461221824 14.2050393171715239   T   T   T
  6.4999702747600692  3.7527860082954860 14.2050676700000071   T   T   T
  3.8999319988671184  3.7527760138328663 14.2050329831487261   T   T   T
 -0.0000122273003304  0.0000180868670353 16.2904928125784778   T   T   T
  2.6000163366830069  0.0000198441533596 16.2904697020373028   T   T   T
  1.2999994414360863  2.2516696837914232 16.2905516094540808   T   T   T
  3.8999858743133133  2.2516385032837452 16.2904832502599710   T   T   T
