Cu  C  O                                
   1.00000000000000     
     5.1999636305000445    0.0000000000000000    0.0000000000000000
     2.5999818152500223    4.5033006027681957    0.0000000000000000
     0.0000000000000000    0.0000000000000000   26.3686287878777179
   Cu   C    O 
    16     1     1
Selective dynamics
Direct
  0.0000000000000000  0.0000000000000000  0.3792385292555380   F   F   F
  0.5000000000000000  0.0000000000000000  0.3792385292555380   F   F   F
  0.0000000000000000  0.5000000000000000  0.3792385292555380   F   F   F
  0.5000000000000000  0.5000000000000000  0.3792385292555380   F   F   F
  0.1666666666666643  0.1666666666666643  0.4597461764185127   F   F   F
  0.6666666666666643  0.1666666666666643  0.4597461764185127   F   F   F
  0.1666666666666643  0.6666666666666643  0.4597461764185127   F   F   F
  0.6666666666666643  0.6666666666666643  0.4597461764185127   F   F   F
  0.8324777658700526  0.3350333728023429  0.5398173454956492   T   T   T
  0.3333313918145535  0.3333313864606353  0.5378635228804498   T   T   T
  0.8324900062966094  0.8324900186212645  0.5398175670800072   T   T   T
  0.3350333343079370  0.8324777869580089  0.5398173518694591   T   T   T
  0.0000023157518854  0.0000023755627652  0.6171185773941659   T   T   T
  0.5006697911510614  0.9986629486752321  0.6210685762306198   T   T   T
  0.9986629977571368  0.5006697790825640  0.6210685821147948   T   T   T
  0.5006696854200428  0.5006696953217684  0.6210725401943620   T   T   T
  0.3333268757374981  0.3333266588940091  0.6749951365693079   T   T   T
  0.3333147565254180  0.3333142372157880  0.7200152694581519   T   T   T
 
  0.00000000E+00  0.00000000E+00  0.00000000E+00
  0.00000000E+00  0.00000000E+00  0.00000000E+00
  0.00000000E+00  0.00000000E+00  0.00000000E+00
  0.00000000E+00  0.00000000E+00  0.00000000E+00
  0.00000000E+00  0.00000000E+00  0.00000000E+00
  0.00000000E+00  0.00000000E+00  0.00000000E+00
  0.00000000E+00  0.00000000E+00  0.00000000E+00
  0.00000000E+00  0.00000000E+00  0.00000000E+00
  0.00000000E+00  0.00000000E+00  0.00000000E+00
  0.00000000E+00  0.00000000E+00  0.00000000E+00
  0.00000000E+00  0.00000000E+00  0.00000000E+00
  0.00000000E+00  0.00000000E+00  0.00000000E+00
  0.00000000E+00  0.00000000E+00  0.00000000E+00
  0.00000000E+00  0.00000000E+00  0.00000000E+00
  0.00000000E+00  0.00000000E+00  0.00000000E+00
  0.00000000E+00  0.00000000E+00  0.00000000E+00
  0.00000000E+00  0.00000000E+00  0.00000000E+00
  0.00000000E+00  0.00000000E+00  0.00000000E+00
