Cu  C  O 
 1.0000000000000000
     5.1999636305000445    0.0000000000000000    0.0000000000000000
     2.5999818152500223    4.5033006027681957    0.0000000000000000
     0.0000000000000000    0.0000000000000000   26.3686287878777179
  16   1   1
Selective dynamics
Cartesian
  0.0000000000000000  0.0000000000000000  9.9999999999999858   F   F   F
  2.5999818152500223  0.0000000000000000  9.9999999999999858   F   F   F
  1.2999909076250111  2.2516503013840978  9.9999999999999858   F   F   F
  3.8999727228750336  2.2516503013840978  9.9999999999999858   F   F   F
  1.2999909076249927  0.7505501004613553 12.1228762626259012   F   F   F
  3.8999727228750150  0.7505501004613553 12.1228762626259012   F   F   F
  2.5999818152500036  3.0022004018454531 12.1228762626259012   F   F   F
  5.1999636305000259  3.0022004018454531 12.1228762626259012   F   F   F
  5.1999347825121953  1.5087559896882510 14.2342431966323577   T   T   T
  2.5999666575893574  1.5010914335697441 14.1827235733748456   T   T   T
  6.4933766652895866  3.7489528026556607 14.2342490395079651   T   T   T
  3.9065882610968661  3.7488977197991491 14.2342433647008821   T   T   T
  0.0000182182455646  0.0000106978732216 16.2725706854099883   T   T   T
  2.5999883957451404 -0.0060211440367462 16.3767267384409969   T   T   T
  1.2947799580231369  2.2546665179303260 16.3767268935986152   T   T   T
  3.9051962583614870  2.2546661407302850 16.3768312627293042   T   T   T
  2.5999308825656504  1.5010701439160881 17.7986961898188447   T   T   T
  2.5998355669661404  1.5010142053650795 18.9858153619458392   T   T   T
