Cu  C  O                                
   1.00000000000000     
     5.1999636305000445    0.0000000000000000    0.0000000000000000
     2.5999818152500223    4.5033006027681957    0.0000000000000000
     0.0000000000000000    0.0000000000000000   26.3686287878777179
   Cu   C    O 
    16     1     1
Selective dynamics
Direct
  0.0000000000000000  0.0000000000000000  0.3792385292555380   F   F   F
  0.5000000000000000  0.0000000000000000  0.3792385292555380   F   F   F
  0.0000000000000000  0.5000000000000000  0.3792385292555380   F   F   F
  0.5000000000000000  0.5000000000000000  0.3792385292555380   F   F   F
  0.1666666666666643  0.1666666666666643  0.4597461764185127   F   F   F
  0.6666666666666643  0.1666666666666643  0.4597461764185127   F   F   F
  0.1666666666666643  0.6666666666666643  0.4597461764185127   F   F   F
  0.6666666666666643  0.6666666666666643  0.4597461764185127   F   F   F
  0.8327780374865767  0.3327780317763995  0.5385470101810625   T   T   T
  0.3344413110171729  0.3327774309446596  0.5385473864894195   T   T   T
  0.8327774410463533  0.8344412789792059  0.5385473911800531   T   T   T
  0.3333322049611027  0.8333321935988920  0.5420422723322105   T   T   T
  0.0001732746170404  0.9999178042979224  0.6214959743318715   T   T   T
  0.4999174796069923  0.9999175044925295  0.6214986000948102   T   T   T
  0.9999953698462107  0.4999953246936926  0.6165210076102028   T   T   T
  0.4999178112618026  0.5001732273727058  0.6214959778796114   T   T   T
  0.6666704965914931  0.1666704779967247  0.6756066747620508   T   T   T
  0.6666950228470654  0.1666949921578080  0.7206571639522465   T   T   T
 
  0.00000000E+00  0.00000000E+00  0.00000000E+00
  0.00000000E+00  0.00000000E+00  0.00000000E+00
  0.00000000E+00  0.00000000E+00  0.00000000E+00
  0.00000000E+00  0.00000000E+00  0.00000000E+00
  0.00000000E+00  0.00000000E+00  0.00000000E+00
  0.00000000E+00  0.00000000E+00  0.00000000E+00
  0.00000000E+00  0.00000000E+00  0.00000000E+00
  0.00000000E+00  0.00000000E+00  0.00000000E+00
  0.00000000E+00  0.00000000E+00  0.00000000E+00
  0.00000000E+00  0.00000000E+00  0.00000000E+00
  0.00000000E+00  0.00000000E+00  0.00000000E+00
  0.00000000E+00  0.00000000E+00  0.00000000E+00
  0.00000000E+00  0.00000000E+00  0.00000000E+00
  0.00000000E+00  0.00000000E+00  0.00000000E+00
  0.00000000E+00  0.00000000E+00  0.00000000E+00
  0.00000000E+00  0.00000000E+00  0.00000000E+00
  0.00000000E+00  0.00000000E+00  0.00000000E+00
  0.00000000E+00  0.00000000E+00  0.00000000E+00
