Cu  C  O 
 1.0000000000000000
     5.1999636305000445    0.0000000000000000    0.0000000000000000
     2.5999818152500223    4.5033006027681957    0.0000000000000000
     0.0000000000000000    0.0000000000000000   26.3686287878777179
  16   1   1
Selective dynamics
Cartesian
  0.0000000000000000  0.0000000000000000  9.9999999999999858   F   F   F
  2.5999818152500223  0.0000000000000000  9.9999999999999858   F   F   F
  1.2999909076250111  2.2516503013840978  9.9999999999999858   F   F   F
  3.8999727228750336  2.2516503013840978  9.9999999999999858   F   F   F
  1.2999909076249927  0.7505501004613553 12.1228762626259012   F   F   F
  3.8999727228750150  0.7505501004613553 12.1228762626259012   F   F   F
  2.5999818152500036  3.0022004018454531 12.1228762626259012   F   F   F
  5.1999636305000259  3.0022004018454531 12.1228762626259012   F   F   F
  5.1956323383427243  1.4985995110866779 14.2007461962857526   T   T   T
  2.6042979228077692  1.4985968053607228 14.2007561190212748   T   T   T
  6.4999445569818599  3.7577399146017378 14.2007562427067597   T   T   T
  3.8999638920916277  3.7527453697400204 14.2929114664657639   T   T   T
  0.0006873143760067 -0.0003701519547106 16.3879966403175388   T   T   T
  2.5993382253883435 -0.0003715020685293 16.3880658780857189   T   T   T
  1.2999546752823201  2.2516292470743728 16.2568135896018440   T   T   T
  3.8999957324444945  2.2524303963160217 16.3879967338664514   T   T   T
  3.9000025477336751  0.7505672640263163 17.8148216134129207   T   T   T
  3.9001938197436754  0.7506776586626914 19.0027412395815816   T   T   T
